127
94
151
18
57
34
123
5
146
200
0 0 0
0 4 5
0 7 5
0 2 6
0 8 8
1 8 14
0 5 13
1 2 19
0 3 18
2 8 24
0 9 27
1 5 37
1 0 44
2 0 52
1 4 58
3 0 62
4 0 67
5 0 72
6 0 74
1 9 82
2 9 87
3 9 83
0 1 94
2 2 96
3 2 106
4 2 119
0 6 118
1 6 126
2 6 130
3 6 143
4 6 148
3 8 149
7 0 160
8 0 173
5 2 178
6 2 185
7 2 185
8 2 197
9 2 205
4 9 213
5 9 228
